NAME : instances/50-tsp/instance-45.tsp
COMMENT : No comment
TYPE : TSP
DIMENSION: 50
EDGE_WEIGHT_TYPE : EUC_2D
NODE_COORD_SECTION
1 1572 1298 
2 1472 1663 
3 1657 1028 
4 857 162 
5 812 1452 
6 655 416 
7 643 651 
8 850 1136 
9 769 1000 
10 1365 70 
11 1494 1834 
12 809 877 
13 971 401 
14 1842 322 
15 959 1683 
16 1537 1294 
17 763 1834 
18 1854 989 
19 1615 1436 
20 657 664 
21 1236 1925 
22 1886 798 
23 806 401 
24 210 1313 
25 412 874 
26 1902 1905 
27 377 427 
28 946 1199 
29 1322 336 
30 503 1334 
31 321 1403 
32 1391 1984 
33 862 968 
34 705 1189 
35 390 66 
36 911 1778 
37 805 947 
38 1505 256 
39 207 1787 
40 655 683 
41 481 333 
42 1397 1019 
43 1655 1160 
44 948 1150 
45 746 377 
46 1215 1485 
47 874 321 
48 862 606 
49 1800 710 
50 485 1943 
EOF
